0 202 
1 202 
2 203 
3 201 
4 202 
5 202 
6 202 
7 204 
8 200 
9 202 
10 196 
11 199 
12 201 
13 195 
14 195 
15 189 
16 191 
17 190 
18 183 
19 187 
20 184 
21 181 
22 178 
23 181 
24 182 
25 179 
26 179 
27 176 
28 170 
29 167 
30 166 
31 168 
32 166 
33 165 
34 161 
35 159 
36 161 
37 156 
38 151 
39 155 
40 153 
41 152 
42 147 
43 146 
44 144 
45 142 
46 144 
47 139 
48 133 
49 129 
50 133 
51 133 
52 125 
53 120 
54 122 
55 118 
56 118 
57 119 
58 116 
59 115 
60 118 
61 118 
62 114 
63 118 
64 115 
65 115 
66 112 
67 107 
68 109 
69 106 
70 105 
71 102 
72 101 
73 107 
74 103 
75 98 
76 95 
77 92 
78 91 
79 90 
80 89 
81 89 
82 85 
83 84 
84 85 
85 77 
86 75 
87 77 
88 77 
89 71 
90 65 
91 64 
92 61 
93 58 
94 57 
95 57 
96 58 
97 50 
98 46 
99 42 
100 47 
101 41 
102 34 
103 29 
104 28 
105 23 
106 19 
107 17 
108 17 
109 18 
110 17 
111 15 
112 14 
113 13 
114 12 
115 11 
116 12 
117 11 
118 13 
119 10 
120 13 
121 14 
122 10 
123 8 
124 5 
125 6 
126 5 
127 1 
128 0 
129 0 

